VALUE 1801483
1 194
4 59
6 171
9 167
11 186
15 94
17 192
19 144
20 150
22 127
24 187
25 182
28 157
29 156
33 144
35 67
37 82
39 87
41 42
37 42
43 58
45 68
47 54
49 185
54 55
55 56
43 56
45 58
49 59
45 63
63 67
68 69
41 69
39 82
87 103
94 97
97 118
103 105
105 107
107 109
109 116
109 111
114 128
114 115
115 116
118 119
119 124
124 128
111 127
128 160
127 132
132 137
137 139
139 143
143 144
19 150
28 156
20 157
160 163
163 167
6 167
171 172
172 184
29 177
177 181
181 182
1 184
24 185
177 186
25 187
11 191
191 192
4 195
6 196
9 197
11 198
15 199
17 200
19 201
22 202
25 203
28 204
33 205
35 206
39 207
41 208
45 209
47 210
49 211

